# Solution for model GNN
# Objective value = 2.2335157797468570e+00
feat_vec[0,0] 0
feat_vec[0,1] 0
feat_vec[0,2] 0
feat_vec[0,3] 0
feat_vec[0,4] 0
feat_vec[0,5] 0
feat_vec[0,6] 0
feat_vec[0,7] 0
feat_vec[0,8] 1
feat_vec[0,9] 1
feat_vec[0,10] 0
feat_vec[0,11] 1
feat_vec[0,12] 0
feat_vec[0,13] 1
feat_vec[0,14] 1
feat_vec[0,15] 0
feat_vec[0,16] 0
feat_vec[0,17] 0
feat_vec[0,18] 0
feat_vec[0,19] 0
feat_vec[0,20] 0
feat_vec[1,0] 0
feat_vec[1,1] 1
feat_vec[1,2] 0
feat_vec[1,3] 0
feat_vec[1,4] 0
feat_vec[1,5] 0
feat_vec[1,6] 0
feat_vec[1,7] 0
feat_vec[1,8] 1
feat_vec[1,9] 0
feat_vec[1,10] 0
feat_vec[1,11] 1
feat_vec[1,12] 0
feat_vec[1,13] 0
feat_vec[1,14] 1
feat_vec[1,15] 1
feat_vec[1,16] 0
feat_vec[1,17] 0
feat_vec[1,18] 0
feat_vec[1,19] 0
feat_vec[1,20] 0
feat_vec[2,0] 0
feat_vec[2,1] 0
feat_vec[2,2] 0
feat_vec[2,3] 0
feat_vec[2,4] 0
feat_vec[2,5] 0
feat_vec[2,6] 0
feat_vec[2,7] 0
feat_vec[2,8] 1
feat_vec[2,9] 0
feat_vec[2,10] 0
feat_vec[2,11] 0
feat_vec[2,12] 0
feat_vec[2,13] 1
feat_vec[2,14] 0
feat_vec[2,15] 1
feat_vec[2,16] 0
feat_vec[2,17] 0
feat_vec[2,18] 1
feat_vec[2,19] 0
feat_vec[2,20] 0
feat_vec[3,0] 0
feat_vec[3,1] 0
feat_vec[3,2] 0
feat_vec[3,3] 0
feat_vec[3,4] 0
feat_vec[3,5] 0
feat_vec[3,6] 0
feat_vec[3,7] 0
feat_vec[3,8] 1
feat_vec[3,9] 0
feat_vec[3,10] 0
feat_vec[3,11] 0
feat_vec[3,12] 0
feat_vec[3,13] 0
feat_vec[3,14] 1
feat_vec[3,15] 1
feat_vec[3,16] 0
feat_vec[3,17] 0
feat_vec[3,18] 1
feat_vec[3,19] 0
feat_vec[3,20] 0
A[0,0] 1
A[0,1] 0
A[0,2] 1
A[0,3] 1
A[1,0] 0
A[1,1] 1
A[1,2] 1
A[1,3] 0
A[2,0] 1
A[2,1] 1
A[2,2] 1
A[2,3] 0
A[3,0] 1
A[3,1] 0
A[3,2] 0
A[3,3] 1
x[0,0] 0
x[0,1] 0
x[0,2] 1
x[0,3] 0
x[0,4] 0
x[0,5] 0
x[0,6] 0
x[0,7] 0
x[0,8] 0
x[0,9] 0
x[0,10] 1
x[0,11] 0
x[0,12] 1
x[0,13] 0
x[0,14] 0
x[0,15] 0
x[0,16] 0
x[0,17] 0
x[0,18] 0
x[0,19] 0
x[0,20] 1
x[1,0] 0
x[1,1] 0
x[1,2] 1
x[1,3] 0
x[1,4] 0
x[1,5] 0
x[1,6] 0
x[1,7] 0
x[1,8] 0
x[1,9] 0
x[1,10] 1
x[1,11] 0
x[1,12] 1
x[1,13] 0
x[1,14] 0
x[1,15] 0
x[1,16] 0
x[1,17] 0
x[1,18] 0
x[1,19] 0
x[1,20] 1
x[2,0] 0
x[2,1] 0
x[2,2] 1
x[2,3] 0
x[2,4] 0
x[2,5] 0
x[2,6] 0
x[2,7] 0
x[2,8] 0
x[2,9] 0
x[2,10] 1
x[2,11] 0
x[2,12] 0
x[2,13] 0
x[2,14] 0
x[2,15] 1
x[2,16] 0
x[2,17] 0
x[2,18] 0
x[2,19] 0
x[2,20] 1
x[3,0] 0
x[3,1] 0
x[3,2] 1
x[3,3] 0
x[3,4] 0
x[3,5] 0
x[3,6] 0
x[3,7] 0
x[3,8] 0
x[3,9] 0
x[3,10] 1
x[3,11] 0
x[3,12] 0
x[3,13] 0
x[3,14] 0
x[3,15] 1
x[3,16] 0
x[3,17] 0
x[3,18] 0
x[3,19] 0
x[3,20] 1
c[0,0,0] 0
c[0,0,1] 0
c[0,0,2] 0
c[0,0,3] 0
c[0,0,4] 0
c[0,0,5] 0
c[0,0,6] 0
c[0,0,7] 0
c[0,0,8] 0
c[0,0,9] 0
c[0,0,10] 0
c[0,0,11] 0
c[0,0,12] 0
c[0,0,13] 0
c[0,0,14] 0
c[0,0,15] 0
c[0,0,16] 0
c[0,0,17] 0
c[0,0,18] 1
c[0,0,19] 0
c[0,0,20] 0
c[0,0,21] 0
c[0,0,22] 0
c[0,0,23] 0
c[0,0,24] 0
c[0,1,0] 0
c[0,1,1] 0
c[0,1,2] 0
c[0,1,3] 0
c[0,1,4] 0
c[0,1,5] 0
c[0,1,6] 0
c[0,1,7] 0
c[0,1,8] 0
c[0,1,9] 0
c[0,1,10] 0
c[0,1,11] 0
c[0,1,12] 0
c[0,1,13] 0
c[0,1,14] 0
c[0,1,15] 0
c[0,1,16] 0
c[0,1,17] 1
c[0,1,18] 0
c[0,1,19] 0
c[0,1,20] 0
c[0,1,21] 0
c[0,1,22] 0
c[0,1,23] 0
c[0,1,24] 0
c[0,2,0] 0
c[0,2,1] 0
c[0,2,2] 0
c[0,2,3] 0
c[0,2,4] 0
c[0,2,5] 0
c[0,2,6] 0
c[0,2,7] 0
c[0,2,8] 0
c[0,2,9] 0
c[0,2,10] 0
c[0,2,11] 0
c[0,2,12] 0
c[0,2,13] 0
c[0,2,14] 0
c[0,2,15] 0
c[0,2,16] 0
c[0,2,17] 0
c[0,2,18] 1
c[0,2,19] 0
c[0,2,20] 0
c[0,2,21] 0
c[0,2,22] 0
c[0,2,23] 0
c[0,2,24] 0
c[0,3,0] 0
c[0,3,1] 0
c[0,3,2] 0
c[0,3,3] 0
c[0,3,4] 0
c[0,3,5] 0
c[0,3,6] 0
c[0,3,7] 0
c[0,3,8] 0
c[0,3,9] 0
c[0,3,10] 0
c[0,3,11] 0
c[0,3,12] 0
c[0,3,13] 0
c[0,3,14] 0
c[0,3,15] 0
c[0,3,16] 0
c[0,3,17] 1
c[0,3,18] 0
c[0,3,19] 0
c[0,3,20] 0
c[0,3,21] 0
c[0,3,22] 0
c[0,3,23] 0
c[0,3,24] 0
c[1,0,0] 0
c[1,0,1] 0
c[1,0,2] 0
c[1,0,3] 0
c[1,0,4] 0
c[1,0,5] 0
c[1,0,6] 0
c[1,0,7] 0
c[1,0,8] 0
c[1,0,9] 0
c[1,0,10] 0
c[1,0,11] 0
c[1,0,12] 0
c[1,0,13] 1
c[1,0,14] 0
c[1,0,15] 0
c[1,0,16] 0
c[1,0,17] 0
c[1,0,18] 0
c[1,0,19] 0
c[1,0,20] 0
c[1,0,21] 0
c[1,0,22] 0
c[1,0,23] 0
c[1,0,24] 0
c[1,1,0] 0
c[1,1,1] 0
c[1,1,2] 0
c[1,1,3] 0
c[1,1,4] 0
c[1,1,5] 0
c[1,1,6] 0
c[1,1,7] 0
c[1,1,8] 0
c[1,1,9] 0
c[1,1,10] 0
c[1,1,11] 0
c[1,1,12] 1
c[1,1,13] 0
c[1,1,14] 0
c[1,1,15] 0
c[1,1,16] 0
c[1,1,17] 0
c[1,1,18] 0
c[1,1,19] 0
c[1,1,20] 0
c[1,1,21] 0
c[1,1,22] 0
c[1,1,23] 0
c[1,1,24] 0
c[1,2,0] 0
c[1,2,1] 0
c[1,2,2] 0
c[1,2,3] 0
c[1,2,4] 0
c[1,2,5] 0
c[1,2,6] 0
c[1,2,7] 0
c[1,2,8] 0
c[1,2,9] 0
c[1,2,10] 0
c[1,2,11] 0
c[1,2,12] 0
c[1,2,13] 1
c[1,2,14] 0
c[1,2,15] 0
c[1,2,16] 0
c[1,2,17] 0
c[1,2,18] 0
c[1,2,19] 0
c[1,2,20] 0
c[1,2,21] 0
c[1,2,22] 0
c[1,2,23] 0
c[1,2,24] 0
c[1,3,0] 0
c[1,3,1] 0
c[1,3,2] 0
c[1,3,3] 0
c[1,3,4] 0
c[1,3,5] 0
c[1,3,6] 0
c[1,3,7] 0
c[1,3,8] 0
c[1,3,9] 0
c[1,3,10] 0
c[1,3,11] 0
c[1,3,12] 1
c[1,3,13] 0
c[1,3,14] 0
c[1,3,15] 0
c[1,3,16] 0
c[1,3,17] 0
c[1,3,18] 0
c[1,3,19] 0
c[1,3,20] 0
c[1,3,21] 0
c[1,3,22] 0
c[1,3,23] 0
c[1,3,24] 0
c[2,0,0] 0
c[2,0,1] 0
c[2,0,2] 0
c[2,0,3] 0
c[2,0,4] 0
c[2,0,5] 0
c[2,0,6] 0
c[2,0,7] 0
c[2,0,8] 0
c[2,0,9] 0
c[2,0,10] 0
c[2,0,11] 0
c[2,0,12] 0
c[2,0,13] 0
c[2,0,14] 0
c[2,0,15] 0
c[2,0,16] 0
c[2,0,17] 0
c[2,0,18] 1
c[2,0,19] 0
c[2,0,20] 0
c[2,0,21] 0
c[2,0,22] 0
c[2,0,23] 0
c[2,0,24] 0
c[2,1,0] 0
c[2,1,1] 0
c[2,1,2] 0
c[2,1,3] 0
c[2,1,4] 0
c[2,1,5] 0
c[2,1,6] 0
c[2,1,7] 0
c[2,1,8] 0
c[2,1,9] 0
c[2,1,10] 0
c[2,1,11] 0
c[2,1,12] 0
c[2,1,13] 0
c[2,1,14] 0
c[2,1,15] 0
c[2,1,16] 0
c[2,1,17] 1
c[2,1,18] 0
c[2,1,19] 0
c[2,1,20] 0
c[2,1,21] 0
c[2,1,22] 0
c[2,1,23] 0
c[2,1,24] 0
c[2,2,0] 0
c[2,2,1] 0
c[2,2,2] 0
c[2,2,3] 0
c[2,2,4] 0
c[2,2,5] 0
c[2,2,6] 0
c[2,2,7] 0
c[2,2,8] 0
c[2,2,9] 0
c[2,2,10] 0
c[2,2,11] 0
c[2,2,12] 0
c[2,2,13] 0
c[2,2,14] 0
c[2,2,15] 0
c[2,2,16] 0
c[2,2,17] 0
c[2,2,18] 1
c[2,2,19] 0
c[2,2,20] 0
c[2,2,21] 0
c[2,2,22] 0
c[2,2,23] 0
c[2,2,24] 0
c[2,3,0] 0
c[2,3,1] 0
c[2,3,2] 0
c[2,3,3] 0
c[2,3,4] 0
c[2,3,5] 0
c[2,3,6] 0
c[2,3,7] 0
c[2,3,8] 0
c[2,3,9] 0
c[2,3,10] 0
c[2,3,11] 0
c[2,3,12] 0
c[2,3,13] 0
c[2,3,14] 0
c[2,3,15] 0
c[2,3,16] 0
c[2,3,17] 1
c[2,3,18] 0
c[2,3,19] 0
c[2,3,20] 0
c[2,3,21] 0
c[2,3,22] 0
c[2,3,23] 0
c[2,3,24] 0
c[3,0,0] 0
c[3,0,1] 0
c[3,0,2] 0
c[3,0,3] 0
c[3,0,4] 0
c[3,0,5] 0
c[3,0,6] 0
c[3,0,7] 0
c[3,0,8] 0
c[3,0,9] 0
c[3,0,10] 0
c[3,0,11] 0
c[3,0,12] 0
c[3,0,13] 1
c[3,0,14] 0
c[3,0,15] 0
c[3,0,16] 0
c[3,0,17] 0
c[3,0,18] 0
c[3,0,19] 0
c[3,0,20] 0
c[3,0,21] 0
c[3,0,22] 0
c[3,0,23] 0
c[3,0,24] 0
c[3,1,0] 0
c[3,1,1] 0
c[3,1,2] 0
c[3,1,3] 0
c[3,1,4] 0
c[3,1,5] 0
c[3,1,6] 0
c[3,1,7] 0
c[3,1,8] 0
c[3,1,9] 0
c[3,1,10] 0
c[3,1,11] 0
c[3,1,12] 1
c[3,1,13] 0
c[3,1,14] 0
c[3,1,15] 0
c[3,1,16] 0
c[3,1,17] 0
c[3,1,18] 0
c[3,1,19] 0
c[3,1,20] 0
c[3,1,21] 0
c[3,1,22] 0
c[3,1,23] 0
c[3,1,24] 0
c[3,2,0] 0
c[3,2,1] 0
c[3,2,2] 0
c[3,2,3] 0
c[3,2,4] 0
c[3,2,5] 0
c[3,2,6] 0
c[3,2,7] 0
c[3,2,8] 0
c[3,2,9] 0
c[3,2,10] 0
c[3,2,11] 0
c[3,2,12] 0
c[3,2,13] 1
c[3,2,14] 0
c[3,2,15] 0
c[3,2,16] 0
c[3,2,17] 0
c[3,2,18] 0
c[3,2,19] 0
c[3,2,20] 0
c[3,2,21] 0
c[3,2,22] 0
c[3,2,23] 0
c[3,2,24] 0
c[3,3,0] 0
c[3,3,1] 0
c[3,3,2] 0
c[3,3,3] 0
c[3,3,4] 0
c[3,3,5] 0
c[3,3,6] 0
c[3,3,7] 0
c[3,3,8] 0
c[3,3,9] 0
c[3,3,10] 0
c[3,3,11] 0
c[3,3,12] 1
c[3,3,13] 0
c[3,3,14] 0
c[3,3,15] 0
c[3,3,16] 0
c[3,3,17] 0
c[3,3,18] 0
c[3,3,19] 0
c[3,3,20] 0
c[3,3,21] 0
c[3,3,22] 0
c[3,3,23] 0
c[3,3,24] 0
b[0,0,0] 0
b[0,0,1] 0
b[0,0,2] 0
b[0,0,3] 0
b[0,0,4] 0
b[0,0,5] 0
b[0,0,6] 0
b[0,0,7] 0
b[0,0,8] 0
b[0,0,9] 0
b[0,0,10] 0
b[0,0,11] 0
b[0,0,12] 0
b[0,0,13] 0
b[0,0,14] 0
b[0,0,15] 0
b[0,0,16] 0
b[0,0,17] 0
b[0,0,18] 0
b[0,0,19] 0
b[0,0,20] 0
b[0,1,0] 0
b[0,1,1] 0
b[0,1,2] 0
b[0,1,3] 0
b[0,1,4] 0
b[0,1,5] 0
b[0,1,6] 0
b[0,1,7] 0
b[0,1,8] 0
b[0,1,9] 0
b[0,1,10] 0
b[0,1,11] 0
b[0,1,12] 0
b[0,1,13] 0
b[0,1,14] 0
b[0,1,15] 0
b[0,1,16] 0
b[0,1,17] 0
b[0,1,18] 0
b[0,1,19] 0
b[0,1,20] 0
b[0,2,0] 0
b[0,2,1] 0
b[0,2,2] 0
b[0,2,3] 0
b[0,2,4] 0
b[0,2,5] 0
b[0,2,6] 0
b[0,2,7] 0
b[0,2,8] 0
b[0,2,9] 0
b[0,2,10] 0
b[0,2,11] 0
b[0,2,12] 0
b[0,2,13] 0
b[0,2,14] 0
b[0,2,15] 0
b[0,2,16] 0
b[0,2,17] 0
b[0,2,18] 0
b[0,2,19] 0
b[0,2,20] 0
b[0,3,0] 0
b[0,3,1] 0
b[0,3,2] 0
b[0,3,3] 0
b[0,3,4] 0
b[0,3,5] 0
b[0,3,6] 0
b[0,3,7] 0
b[0,3,8] 0
b[0,3,9] 0
b[0,3,10] 0
b[0,3,11] 0
b[0,3,12] 0
b[0,3,13] 0
b[0,3,14] 0
b[0,3,15] 0
b[0,3,16] 0
b[0,3,17] 0
b[0,3,18] 0
b[0,3,19] 0
b[0,3,20] 0
b[1,0,0] 0
b[1,0,1] 0
b[1,0,2] 0
b[1,0,3] 0
b[1,0,4] 0
b[1,0,5] 0
b[1,0,6] 0
b[1,0,7] 0
b[1,0,8] 0
b[1,0,9] 0
b[1,0,10] 0
b[1,0,11] 0
b[1,0,12] 0
b[1,0,13] 0
b[1,0,14] 0
b[1,0,15] 0
b[1,0,16] 0
b[1,0,17] 0
b[1,0,18] 0
b[1,0,19] 0
b[1,0,20] 0
b[1,1,0] 0
b[1,1,1] 0
b[1,1,2] 0
b[1,1,3] 0
b[1,1,4] 0
b[1,1,5] 0
b[1,1,6] 0
b[1,1,7] 0
b[1,1,8] 0
b[1,1,9] 0
b[1,1,10] 0
b[1,1,11] 0
b[1,1,12] 0
b[1,1,13] 0
b[1,1,14] 0
b[1,1,15] 0
b[1,1,16] 0
b[1,1,17] 0
b[1,1,18] 0
b[1,1,19] 0
b[1,1,20] 0
b[1,2,0] 0
b[1,2,1] 0
b[1,2,2] 0
b[1,2,3] 0
b[1,2,4] 0
b[1,2,5] 0
b[1,2,6] 0
b[1,2,7] 0
b[1,2,8] 0
b[1,2,9] 0
b[1,2,10] 0
b[1,2,11] 0
b[1,2,12] 0
b[1,2,13] 0
b[1,2,14] 0
b[1,2,15] 0
b[1,2,16] 0
b[1,2,17] 0
b[1,2,18] 0
b[1,2,19] 0
b[1,2,20] 0
b[1,3,0] 0
b[1,3,1] 0
b[1,3,2] 0
b[1,3,3] 0
b[1,3,4] 0
b[1,3,5] 0
b[1,3,6] 0
b[1,3,7] 0
b[1,3,8] 0
b[1,3,9] 0
b[1,3,10] 0
b[1,3,11] 0
b[1,3,12] 0
b[1,3,13] 0
b[1,3,14] 0
b[1,3,15] 0
b[1,3,16] 0
b[1,3,17] 0
b[1,3,18] 0
b[1,3,19] 0
b[1,3,20] 0
b[2,0,0] 0
b[2,0,1] 0
b[2,0,2] 0
b[2,0,3] 0
b[2,0,4] 0
b[2,0,5] 0
b[2,0,6] 0
b[2,0,7] 0
b[2,0,8] 0
b[2,0,9] 0
b[2,0,10] 0
b[2,0,11] 0
b[2,0,12] 0
b[2,0,13] 0
b[2,0,14] 0
b[2,0,15] 0
b[2,0,16] 0
b[2,0,17] 0
b[2,0,18] 0
b[2,0,19] 0
b[2,0,20] 0
b[2,1,0] 0
b[2,1,1] 0
b[2,1,2] 0
b[2,1,3] 0
b[2,1,4] 0
b[2,1,5] 0
b[2,1,6] 0
b[2,1,7] 0
b[2,1,8] 0
b[2,1,9] 0
b[2,1,10] 0
b[2,1,11] 0
b[2,1,12] 0
b[2,1,13] 0
b[2,1,14] 0
b[2,1,15] 0
b[2,1,16] 0
b[2,1,17] 0
b[2,1,18] 0
b[2,1,19] 0
b[2,1,20] 0
b[2,2,0] 0
b[2,2,1] 0
b[2,2,2] 0
b[2,2,3] 0
b[2,2,4] 0
b[2,2,5] 0
b[2,2,6] 0
b[2,2,7] 0
b[2,2,8] 0
b[2,2,9] 0
b[2,2,10] 0
b[2,2,11] 0
b[2,2,12] 0
b[2,2,13] 0
b[2,2,14] 0
b[2,2,15] 0
b[2,2,16] 0
b[2,2,17] 0
b[2,2,18] 0
b[2,2,19] 0
b[2,2,20] 0
b[2,3,0] 0
b[2,3,1] 0
b[2,3,2] 0
b[2,3,3] 0
b[2,3,4] 0
b[2,3,5] 0
b[2,3,6] 0
b[2,3,7] 0
b[2,3,8] 0
b[2,3,9] 0
b[2,3,10] 0
b[2,3,11] 0
b[2,3,12] 0
b[2,3,13] 0
b[2,3,14] 0
b[2,3,15] 0
b[2,3,16] 0
b[2,3,17] 0
b[2,3,18] 0
b[2,3,19] 0
b[2,3,20] 0
b[3,0,0] 0
b[3,0,1] 0
b[3,0,2] 0
b[3,0,3] 0
b[3,0,4] 0
b[3,0,5] 0
b[3,0,6] 0
b[3,0,7] 0
b[3,0,8] 0
b[3,0,9] 0
b[3,0,10] 0
b[3,0,11] 0
b[3,0,12] 0
b[3,0,13] 0
b[3,0,14] 0
b[3,0,15] 0
b[3,0,16] 0
b[3,0,17] 0
b[3,0,18] 0
b[3,0,19] 0
b[3,0,20] 0
b[3,1,0] 0
b[3,1,1] 0
b[3,1,2] 0
b[3,1,3] 0
b[3,1,4] 0
b[3,1,5] 0
b[3,1,6] 0
b[3,1,7] 0
b[3,1,8] 0
b[3,1,9] 0
b[3,1,10] 0
b[3,1,11] 0
b[3,1,12] 0
b[3,1,13] 0
b[3,1,14] 0
b[3,1,15] 0
b[3,1,16] 0
b[3,1,17] 0
b[3,1,18] 0
b[3,1,19] 0
b[3,1,20] 0
b[3,2,0] 0
b[3,2,1] 0
b[3,2,2] 0
b[3,2,3] 0
b[3,2,4] 0
b[3,2,5] 0
b[3,2,6] 0
b[3,2,7] 0
b[3,2,8] 0
b[3,2,9] 0
b[3,2,10] 0
b[3,2,11] 0
b[3,2,12] 0
b[3,2,13] 0
b[3,2,14] 0
b[3,2,15] 0
b[3,2,16] 0
b[3,2,17] 0
b[3,2,18] 0
b[3,2,19] 0
b[3,2,20] 0
b[3,3,0] 0
b[3,3,1] 0
b[3,3,2] 0
b[3,3,3] 0
b[3,3,4] 0
b[3,3,5] 0
b[3,3,6] 0
b[3,3,7] 0
b[3,3,8] 0
b[3,3,9] 0
b[3,3,10] 0
b[3,3,11] 0
b[3,3,12] 0
b[3,3,13] 0
b[3,3,14] 0
b[3,3,15] 0
b[3,3,16] 0
b[3,3,17] 0
b[3,3,18] 0
b[3,3,19] 0
b[3,3,20] 0
sp[0,0] 3.3333333333333348e-01
sp[0,1] 4.0824829046386296e-01
sp[0,2] 3.3333333333333909e-01
sp[0,3] 4.0824829046386296e-01
sp[1,0] 4.0824829046386296e-01
sp[1,1] 5.0000000000000022e-01
sp[1,2] 4.0824829046386296e-01
sp[1,3] 4.9999999999999989e-01
sp[2,0] 3.3333333333333870e-01
sp[2,1] 4.0824829046386296e-01
sp[2,2] 3.3333333333333331e-01
sp[2,3] 4.0824829046386879e-01
sp[3,0] 0.408248290463869
sp[3,1] 4.9999999999999989e-01
sp[3,2] 4.0824829046386296e-01
sp[3,3] 0.5
d_plus[0] 3
d_plus[1] 2
d_plus[2] 3
d_plus[3] 2
p[0,0] 18
p[0,1] 17
p[0,2] 18
p[0,3] 17
p[1,0] 13
p[1,1] 12
p[1,2] 13
p[1,3] 12
p[2,0] 18
p[2,1] 17
p[2,2] 18
p[2,3] 17
p[3,0] 13
p[3,1] 12
p[3,2] 13
p[3,3] 12
t[0,0] 3.3333333333333348e-01
t[0,1] 0
t[0,2] 3.3333333333333914e-01
t[0,3] 4.0824829046386307e-01
t[1,0] 0
t[1,1] 5.0000000000000022e-01
t[1,2] 4.0824829046386307e-01
t[1,3] 0
t[2,0] 3.3333333333333875e-01
t[2,1] 4.0824829046386307e-01
t[2,2] 3.3333333333333331e-01
t[2,3] 0
t[3,0] 4.0824829046386912e-01
t[3,1] 0
t[3,2] 0
t[3,3] 0.5
h_prime[0,0] 0
h_prime[0,1] 0
h_prime[0,2] 2.9918026181780188e-02
h_prime[0,3] 0
h_prime[0,4] 2.0287052254347453e-02
h_prime[0,5] 0
h_prime[0,6] 0.0695918325585404
h_prime[0,7] 6.3734000887825082e-01
h_prime[0,8] 4.8117392196906517e-01
h_prime[0,9] 3.8181663075533834e-01
h_prime[0,10] 0
h_prime[0,11] 0
h_prime[0,12] 1.2653415297854873e+00
h_prime[0,13] 0
h_prime[0,14] 0
h_prime[0,15] 0
h_prime[0,16] 0
h_prime[0,17] 3.6647239944953586e-01
h_prime[0,18] 0
h_prime[0,19] 0
h_prime[0,20] 0
h_prime[0,21] 0
h_prime[0,22] 0
h_prime[0,23] 0
h_prime[0,24] 2.2824647691184607e-01
h_prime[0,25] 0
h_prime[0,26] 1.5225310316437790e-01
h_prime[0,27] 0
h_prime[0,28] 3.0592385742254369e-01
h_prime[0,29] 0
h_prime[0,30] 0
h_prime[0,31] 0
h_prime[1,0] 0
h_prime[1,1] 2.2396277727003877e-01
h_prime[1,2] 0
h_prime[1,3] 0
h_prime[1,4] 0
h_prime[1,5] 0
h_prime[1,6] 3.1371374610814906e-01
h_prime[1,7] 5.5462487114280157e-01
h_prime[1,8] 2.7279243446395252e-01
h_prime[1,9] 5.8412780112508056e-01
h_prime[1,10] 0
h_prime[1,11] 0
h_prime[1,12] 8.9023148955687537e-01
h_prime[1,13] 0
h_prime[1,14] 0
h_prime[1,15] 0
h_prime[1,16] 0
h_prime[1,17] 5.3054934419286781e-01
h_prime[1,18] 0
h_prime[1,19] 0
h_prime[1,20] 0
h_prime[1,21] 0
h_prime[1,22] 0
h_prime[1,23] 0
h_prime[1,24] 5.0661899935504129e-01
h_prime[1,25] 0
h_prime[1,26] 7.7814258000645578e-02
h_prime[1,27] 0
h_prime[1,28] 2.8082618552093741e-01
h_prime[1,29] 0
h_prime[1,30] 0
h_prime[1,31] 0
h_prime[2,0] 0
h_prime[2,1] 1.9558886645010609e-01
h_prime[2,2] 0
h_prime[2,3] 0
h_prime[2,4] 0
h_prime[2,5] 0
h_prime[2,6] 1.5041309455364993e-01
h_prime[2,7] 7.1092453832564517e-01
h_prime[2,8] 3.5098378991351514e-01
h_prime[2,9] 6.9827508723505960e-01
h_prime[2,10] 0
h_prime[2,11] 0
h_prime[2,12] 1.0753189608551035e+00
h_prime[2,13] 0
h_prime[2,14] 0
h_prime[2,15] 0
h_prime[2,16] 0
h_prime[2,17] 4.8981634545803865e-01
h_prime[2,18] 0
h_prime[2,19] 0
h_prime[2,20] 0
h_prime[2,21] 0
h_prime[2,22] 0
h_prime[2,23] 0
h_prime[2,24] 3.9010789741287383e-01
h_prime[2,25] 0
h_prime[2,26] 1.5663420281810697e-01
h_prime[2,27] 0
h_prime[2,28] 2.5722492496133686e-01
h_prime[2,29] 0
h_prime[2,30] 0
h_prime[2,31] 0
h_prime[3,0] 0
h_prime[3,1] 0
h_prime[3,2] 0
h_prime[3,3] 0
h_prime[3,4] 0
h_prime[3,5] 0
h_prime[3,6] 0
h_prime[3,7] 6.5075418895389414e-01
h_prime[3,8] 5.3307701987622513e-01
h_prime[3,9] 4.3730762642675491e-01
h_prime[3,10] 0
h_prime[3,11] 0
h_prime[3,12] 1.0553512589727774e+00
h_prime[3,13] 0
h_prime[3,14] 0
h_prime[3,15] 0
h_prime[3,16] 0
h_prime[3,17] 2.4793434784791191e-01
h_prime[3,18] 0
h_prime[3,19] 0
h_prime[3,20] 0
h_prime[3,21] 0
h_prime[3,22] 0
h_prime[3,23] 0
h_prime[3,24] 7.4839469086792773e-02
h_prime[3,25] 0
h_prime[3,26] 1.9046268507987490e-01
h_prime[3,27] 0
h_prime[3,28] 1.4366486918679849e-01
h_prime[3,29] 1.6320971289995240e-02
h_prime[3,30] 0
h_prime[3,31] 0
x_0_0_0_100 0
s_0_0_0_100 2.6505503984185452e-01
z_0_0_0_100 0
x_0_0_1_100 0
s_0_0_1_100 3.9565867842351443e-02
z_0_0_1_100 0
x_0_0_2_100 0
s_0_0_2_100 0
z_0_0_2_100 1
x_0_0_3_100 0
s_0_0_3_100 2.0477373849318559e-01
z_0_0_3_100 0
x_0_0_4_100 0
s_0_0_4_100 0
z_0_0_4_100 1
x_0_0_5_100 0
s_0_0_5_100 3.4000936488468436e-01
z_0_0_5_100 0
x_0_0_6_100 0
s_0_0_6_100 0
z_0_0_6_100 1
x_0_0_7_100 0
s_0_0_7_100 0
z_0_0_7_100 1
x_0_0_8_100 0
s_0_0_8_100 0
z_0_0_8_100 1
x_0_0_9_100 0
s_0_0_9_100 0
z_0_0_9_100 1
x_0_0_10_100 0
s_0_0_10_100 5.2710012505524012e-02
z_0_0_10_100 0
x_0_0_11_100 0
s_0_0_11_100 6.1460241967866247e-01
z_0_0_11_100 0
x_0_0_12_100 0
s_0_0_12_100 0
z_0_0_12_100 1
x_0_0_13_100 0
s_0_0_13_100 4.2448470759230483e-01
z_0_0_13_100 0
x_0_0_14_100 0
s_0_0_14_100 1.4847379157275759e-01
z_0_0_14_100 0
x_0_0_15_100 0
s_0_0_15_100 4.1879865663275639e-01
z_0_0_15_100 0
x_0_0_16_100 0
s_0_0_16_100 1.0512268380744710e-01
z_0_0_16_100 0
x_0_0_17_100 0
s_0_0_17_100 0
z_0_0_17_100 1
x_0_0_18_100 0
s_0_0_18_100 1.9749061357781120e-01
z_0_0_18_100 0
x_0_0_19_100 0
s_0_0_19_100 4.1626361192666489e-01
z_0_0_19_100 0
x_0_0_20_100 0
s_0_0_20_100 1.1452708154027072e-01
z_0_0_20_100 0
x_0_0_21_100 0
s_0_0_21_100 6.4759915113406419e-01
z_0_0_21_100 0
x_0_0_22_100 0
s_0_0_22_100 1.9907771211134051e-01
z_0_0_22_100 0
x_0_0_23_100 0
s_0_0_23_100 3.8377341516826591e-01
z_0_0_23_100 0
x_0_0_24_100 0
s_0_0_24_100 0
z_0_0_24_100 1
x_0_0_25_100 0
s_0_0_25_100 0.649563717813125
z_0_0_25_100 0
x_0_0_26_100 0
s_0_0_26_100 0
z_0_0_26_100 1
x_0_0_27_100 0
s_0_0_27_100 3.1324326239021461e-01
z_0_0_27_100 0
x_0_0_28_100 0
s_0_0_28_100 0
z_0_0_28_100 1
x_0_0_29_100 0
s_0_0_29_100 1.7271824112026168e-01
z_0_0_29_100 0
x_0_0_30_100 0
s_0_0_30_100 2.1576324360705959e-01
z_0_0_30_100 0
x_0_0_31_100 0
s_0_0_31_100 1.0070725131723683e+00
z_0_0_31_100 0
x_0_1_0_100 0
s_0_1_0_100 3.7041503126350583e-01
z_0_1_0_100 0
x_0_1_1_100 0
s_0_1_1_100 0
z_0_1_1_100 1
x_0_1_2_100 0
s_0_1_2_100 1.1729879120984972e-01
z_0_1_2_100 0
x_0_1_3_100 0
s_0_1_3_100 6.0000927668293715e-02
z_0_1_3_100 0
x_0_1_4_100 0
s_0_1_4_100 8.5813481112346324e-02
z_0_1_4_100 0
x_0_1_5_100 0
s_0_1_5_100 4.6666140765659070e-01
z_0_1_5_100 0
x_0_1_6_100 0
s_0_1_6_100 0
z_0_1_6_100 1
x_0_1_7_100 0
s_0_1_7_100 0
z_0_1_7_100 1
x_0_1_8_100 0
s_0_1_8_100 0
z_0_1_8_100 1
x_0_1_9_100 0
s_0_1_9_100 0
z_0_1_9_100 1
x_0_1_10_100 0
s_0_1_10_100 4.2534823570520922e-02
z_0_1_10_100 0
x_0_1_11_100 0
s_0_1_11_100 4.4914853677445932e-01
z_0_1_11_100 0
x_0_1_12_100 0
s_0_1_12_100 0
z_0_1_12_100 1
x_0_1_13_100 0
s_0_1_13_100 2.9692271374192974e-01
z_0_1_13_100 0
x_0_1_14_100 0
s_0_1_14_100 3.3039961964758408e-01
z_0_1_14_100 0
x_0_1_15_100 0
s_0_1_15_100 0.611812357653992
z_0_1_15_100 0
x_0_1_16_100 0
s_0_1_16_100 6.9159189045881087e-02
z_0_1_16_100 0
x_0_1_17_100 0
s_0_1_17_100 0
z_0_1_17_100 1
x_0_1_18_100 0
s_0_1_18_100 3.7872615507361229e-01
z_0_1_18_100 0
x_0_1_19_100 0
s_0_1_19_100 2.7499471120222829e-01
z_0_1_19_100 0
x_0_1_20_100 0
s_0_1_20_100 1.4146987212090506e-01
z_0_1_20_100 0
x_0_1_21_100 0
s_0_1_21_100 3.4202694747000084e-01
z_0_1_21_100 0
x_0_1_22_100 0
s_0_1_22_100 6.5240175278955939e-02
z_0_1_22_100 0
x_0_1_23_100 0
s_0_1_23_100 6.6095804065448738e-01
z_0_1_23_100 0
x_0_1_24_100 0
s_0_1_24_100 0
z_0_1_24_100 1
x_0_1_25_100 0
s_0_1_25_100 3.6606197140388896e-01
z_0_1_25_100 0
x_0_1_26_100 0
s_0_1_26_100 0
z_0_1_26_100 1
x_0_1_27_100 0
s_0_1_27_100 2.5770147328629717e-01
z_0_1_27_100 0
x_0_1_28_100 0
s_0_1_28_100 0
z_0_1_28_100 1
x_0_1_29_100 0
s_0_1_29_100 2.4678117385993428e-01
z_0_1_29_100 0
x_0_1_30_100 0
s_0_1_30_100 3.4619024671758264e-01
z_0_1_30_100 0
x_0_1_31_100 0
s_0_1_31_100 0.879331408589896
z_0_1_31_100 0
x_0_2_0_100 0
s_0_2_0_100 2.7359992887818441e-01
z_0_2_0_100 0
x_0_2_1_100 0
s_0_2_1_100 0
z_0_2_1_100 1
x_0_2_2_100 0
s_0_2_2_100 1.0298380006539926e-01
z_0_2_2_100 0
x_0_2_3_100 0
s_0_2_3_100 5.7827464905773771e-02
z_0_2_3_100 0
x_0_2_4_100 0
s_0_2_4_100 1.8561845684712272e-01
z_0_2_4_100 0
x_0_2_5_100 0
s_0_2_5_100 5.4231813410537788e-01
z_0_2_5_100 0
x_0_2_6_100 0
s_0_2_6_100 0
z_0_2_6_100 1
x_0_2_7_100 0
s_0_2_7_100 0
z_0_2_7_100 1
x_0_2_8_100 0
s_0_2_8_100 0
z_0_2_8_100 1
x_0_2_9_100 0
s_0_2_9_100 0
z_0_2_9_100 1
x_0_2_10_100 0
s_0_2_10_100 1.0730792845504741e-01
z_0_2_10_100 0
x_0_2_11_100 0
s_0_2_11_100 5.3951569237547636e-01
z_0_2_11_100 0
x_0_2_12_100 0
s_0_2_12_100 0
z_0_2_12_100 1
x_0_2_13_100 0
s_0_2_13_100 3.7147503235433083e-01
z_0_2_13_100 0
x_0_2_14_100 0
s_0_2_14_100 2.4803503797560886e-01
z_0_2_14_100 0
x_0_2_15_100 0
s_0_2_15_100 6.6166431636038414e-01
z_0_2_15_100 0
x_0_2_16_100 0
s_0_2_16_100 1.5763898490085812e-01
z_0_2_16_100 0
x_0_2_17_100 0
s_0_2_17_100 0
z_0_2_17_100 1
x_0_2_18_100 0
s_0_2_18_100 3.1743509742747406e-01
z_0_2_18_100 0
x_0_2_19_100 0
s_0_2_19_100 3.3537808821470372e-01
z_0_2_19_100 0
x_0_2_20_100 0
s_0_2_20_100 1.3634434047513050e-01
z_0_2_20_100 0
x_0_2_21_100 0
s_0_2_21_100 2.8989168656808839e-01
z_0_2_21_100 0
x_0_2_22_100 0
s_0_2_22_100 1.6065825977778486e-01
z_0_2_22_100 0
x_0_2_23_100 0
s_0_2_23_100 8.8475211433949208e-01
z_0_2_23_100 0
x_0_2_24_100 0
s_0_2_24_100 0
z_0_2_24_100 1
x_0_2_25_100 0
s_0_2_25_100 3.1430610395081754e-01
z_0_2_25_100 0
x_0_2_26_100 0
s_0_2_26_100 0
z_0_2_26_100 1
x_0_2_27_100 0
s_0_2_27_100 1.1033530216336823e-01
z_0_2_27_100 0
x_0_2_28_100 0
s_0_2_28_100 0
z_0_2_28_100 1
x_0_2_29_100 0
s_0_2_29_100 0.0536476095523436
z_0_2_29_100 0
x_0_2_30_100 0
s_0_2_30_100 4.4490028041740359e-01
z_0_2_30_100 0
x_0_2_31_100 0
s_0_2_31_100 9.8120970738725077e-01
z_0_2_31_100 0
x_0_3_0_100 0
s_0_3_0_100 2.9447410469399371e-01
z_0_3_0_100 0
x_0_3_1_100 0
s_0_3_1_100 9.7839095550286831e-02
z_0_3_1_100 0
x_0_3_2_100 0
s_0_3_2_100 8.9680720755275889e-02
z_0_3_2_100 0
x_0_3_3_100 0
s_0_3_3_100 1.3663938498392503e-01
z_0_3_3_100 0
x_0_3_4_100 0
s_0_3_4_100 0.17521769324863
z_0_3_4_100 0
x_0_3_5_100 0
s_0_3_5_100 2.3575368306060529e-01
z_0_3_5_100 0
x_0_3_6_100 0
s_0_3_6_100 1.0293734353769901e-02
z_0_3_6_100 0
x_0_3_7_100 0
s_0_3_7_100 0
z_0_3_7_100 1
x_0_3_8_100 0
s_0_3_8_100 0
z_0_3_8_100 1
x_0_3_9_100 0
s_0_3_9_100 0
z_0_3_9_100 1
x_0_3_10_100 0
s_0_3_10_100 6.2473630079974404e-02
z_0_3_10_100 0
x_0_3_11_100 0
s_0_3_11_100 5.8832945036688156e-01
z_0_3_11_100 0
x_0_3_12_100 0
s_0_3_12_100 0
z_0_3_12_100 1
x_0_3_13_100 0
s_0_3_13_100 4.0075600435378106e-01
z_0_3_13_100 0
x_0_3_14_100 0
s_0_3_14_100 2.3032567682673855e-02
z_0_3_14_100 0
x_0_3_15_100 0
s_0_3_15_100 4.3419197712834690e-01
z_0_3_15_100 0
x_0_3_16_100 0
s_0_3_16_100 1.7178255219460944e-01
z_0_3_16_100 0
x_0_3_17_100 0
s_0_3_17_100 0
z_0_3_17_100 1
x_0_3_18_100 0
s_0_3_18_100 5.3422514997895909e-02
z_0_3_18_100 0
x_0_3_19_100 0
s_0_3_19_100 3.3370072830486458e-01
z_0_3_19_100 0
x_0_3_20_100 0
s_0_3_20_100 5.7886240259185984e-02
z_0_3_20_100 0
x_0_3_21_100 0
s_0_3_21_100 4.9142474927801910e-01
z_0_3_21_100 0
x_0_3_22_100 0
s_0_3_22_100 1.0456667552447649e-01
z_0_3_22_100 0
x_0_3_23_100 0
s_0_3_23_100 4.3751586174708390e-01
z_0_3_23_100 0
x_0_3_24_100 0
s_0_3_24_100 0
z_0_3_24_100 1
x_0_3_25_100 0
s_0_3_25_100 4.5035220017515248e-01
z_0_3_25_100 0
x_0_3_26_100 0
s_0_3_26_100 0
z_0_3_26_100 1
x_0_3_27_100 0
s_0_3_27_100 2.4188768356576634e-01
z_0_3_27_100 0
x_0_3_28_100 0
s_0_3_28_100 0
z_0_3_28_100 1
x_0_3_29_100 0
s_0_3_29_100 0
z_0_3_29_100 1
x_0_3_30_100 0
s_0_3_30_100 1.4426019352708952e-01
z_0_3_30_100 0
x_0_3_31_100 0
s_0_3_31_100 8.0118064143250145e-01
z_0_3_31_100 0
h[0] 0
h[1] 4.1955164372014486e-01
h[2] 2.9918026181780188e-02
h[3] 0
h[4] 2.0287052254432617e-02
h[5] 0
h[6] 5.3371867322033939e-01
h[7] 2.5536436073005917e+00
h[8] 1.6380271662227579e+00
h[9] 2.1015271455422333e+00
h[10] 0
h[11] 0
h[12] 4.2862432391702434e+00
h[13] 0
h[14] 0
h[15] 0
h[16] 0
h[17] 1.6347724369483543e+00
h[18] 0
h[19] 0
h[20] 0
h[21] 0
h[22] 0
h[23] 0
h[24] 1.1998128427665540e+00
h[25] 0
h[26] 5.7716424906300534e-01
h[27] 0
h[28] 9.8763983709161651e-01
h[29] 1.6320971289994546e-02
h[30] 0
h[31] 0
y 2.2335157797468570e+00
x_1_0_0 2.0174340894746603e+00
s_1_0_0 0
z_1_0_0 1
x_1_1_0 0
s_1_1_0 1.4676440558049741e+00
z_1_1_0 0
x_1_2_0 2.3401572153491577e+00
s_1_2_0 0
z_1_2_0 1
x_1_3_0 0
s_1_3_0 2.0811379122176441e+00
z_1_3_0 0
x_1_4_0 0
s_1_4_0 4.2442077854238330e-01
z_1_4_0 0
x_1_5_0 0
s_1_5_0 1.4322710141754380e+00
z_1_5_0 0
x_1_6_0 0
s_1_6_0 1.8669282371481519e+00
z_1_6_0 0
x_1_7_0 0
s_1_7_0 9.3204204700900267e-02
z_1_7_0 0
x_1_8_0 2.3361087432607324e+00
s_1_8_0 0
z_1_8_0 1
x_1_9_0 1.6097118485151658e+00
s_1_9_0 0
z_1_9_0 1
x_1_10_0 2.0252311659973548e+00
s_1_10_0 0
z_1_10_0 1
x_1_11_0 0
s_1_11_0 8.9613011554795008e-01
z_1_11_0 0
x_1_12_0 5.3153408431857629e-01
s_1_12_0 0
z_1_12_0 1
x_1_13_0 3.0505970882834896e+00
s_1_13_0 0
z_1_13_0 1
x_1_14_0 3.0407458204485660e-01
s_1_14_0 2.2132295995902496e-13
z_1_14_0 1
x_1_15_0 1.0883463389180684e-01
s_1_15_0 0
z_1_15_0 1
